c Random generated cnf formula, satisfiable: false
p cnf 10 50
-6 10 -5 0
-7 -6 -2 0
-7 -9 2 0
-6 10 4 0
4 -6 3 0
6 10 -4 0
-9 1 2 0
-3 1 -4 0
8 -4 -7 0
9 5 -6 0
3 1 5 0
7 -3 -5 0
-3 4 8 0
8 -9 -5 0
3 4 -2 0
-3 -8 10 0
-6 3 -1 0
4 -5 -6 0
6 8 -5 0
5 8 -6 0
-9 1 8 0
-4 9 -8 0
-6 -4 -8 0
-7 5 10 0
4 -10 -3 0
10 -6 -9 0
-3 5 8 0
-7 5 -4 0
-7 1 -8 0
-3 4 10 0
4 6 -7 0
7 4 -8 0
-4 10 9 0
1 -2 -5 0
5 -1 -10 0
4 -10 6 0
-7 9 -5 0
2 -5 8 0
-10 -6 5 0
-5 -10 -9 0
8 -6 3 0
-8 10 5 0
-9 -2 1 0
9 -1 -7 0
8 -7 -6 0
3 9 -1 0
-4 9 -5 0
-6 7 -4 0
10 -4 -6 0
6 5 8 0
